p cnf 33 155
1 2 3 0 
-1 -2 0 
-1 -3 0 
-2 -3 0 
4 5 6 0 
-4 -5 0 
-4 -6 0 
-5 -6 0 
7 8 9 0 
-7 -8 0 
-7 -9 0 
-8 -9 0 
10 11 12 0 
-10 -11 0 
-10 -12 0 
-11 -12 0 
13 14 15 0 
-13 -14 0 
-13 -15 0 
-14 -15 0 
16 17 18 0 
-16 -17 0 
-16 -18 0 
-17 -18 0 
19 20 21 0 
-19 -20 0 
-19 -21 0 
-20 -21 0 
22 23 24 0 
-22 -23 0 
-22 -24 0 
-23 -24 0 
25 26 27 0 
-25 -26 0 
-25 -27 0 
-26 -27 0 
28 29 30 0 
-28 -29 0 
-28 -30 0 
-29 -30 0 
31 32 33 0 
-31 -32 0 
-31 -33 0 
-32 -33 0 
-1 -28 0
-2 -29 0
-3 -30 0
-1 -25 0
-2 -26 0
-3 -27 0
-1 -22 0
-2 -23 0
-3 -24 0
-1 -19 0
-2 -20 0
-3 -21 0
-1 -16 0
-2 -17 0
-3 -18 0
-1 -13 0
-2 -14 0
-3 -15 0
-1 -10 0
-2 -11 0
-3 -12 0
-4 -28 0
-5 -29 0
-6 -30 0
-4 -25 0
-5 -26 0
-6 -27 0
-4 -22 0
-5 -23 0
-6 -24 0
-4 -19 0
-5 -20 0
-6 -21 0
-4 -16 0
-5 -17 0
-6 -18 0
-4 -13 0
-5 -14 0
-6 -15 0
-4 -10 0
-5 -11 0
-6 -12 0
-4 -7 0
-5 -8 0
-6 -9 0
-7 -31 0
-8 -32 0
-9 -33 0
-7 -28 0
-8 -29 0
-9 -30 0
-7 -22 0
-8 -23 0
-9 -24 0
-7 -19 0
-8 -20 0
-9 -21 0
-7 -16 0
-8 -17 0
-9 -18 0
-7 -4 0
-8 -5 0
-9 -6 0
-10 -31 0
-11 -32 0
-12 -33 0
-10 -28 0
-11 -29 0
-12 -30 0
-10 -25 0
-11 -26 0
-12 -27 0
-10 -4 0
-11 -5 0
-12 -6 0
-10 -1 0
-11 -2 0
-12 -3 0
-13 -31 0
-14 -32 0
-15 -33 0
-13 -25 0
-14 -26 0
-15 -27 0
-13 -22 0
-14 -23 0
-15 -24 0
-13 -4 0
-14 -5 0
-15 -6 0
-13 -1 0
-14 -2 0
-15 -3 0
-16 -31 0
-17 -32 0
-18 -33 0
-16 -28 0
-17 -29 0
-18 -30 0
-16 -25 0
-17 -26 0
-18 -27 0
-16 -22 0
-17 -23 0
-18 -24 0
-16 -19 0
-17 -20 0
-18 -21 0
-16 -7 0
-17 -8 0
-18 -9 0
-16 -4 0
-17 -5 0
-18 -6 0
-16 -1 0
-17 -2 0
-18 -3 0
-19 -31 0
-20 -32 0
-21 -33 0
-19 -25 0
-20 -26 0
-21 -27 0
-19 -22 0
-20 -23 0
-21 -24 0
-19 -16 0
-20 -17 0
-21 -18 0
-19 -7 0
-20 -8 0
-21 -9 0
-19 -4 0
-20 -5 0
-21 -6 0
-19 -1 0
-20 -2 0
-21 -3 0
-22 -31 0
-23 -32 0
-24 -33 0
-22 -19 0
-23 -20 0
-24 -21 0
-22 -16 0
-23 -17 0
-24 -18 0
-22 -13 0
-23 -14 0
-24 -15 0
-22 -7 0
-23 -8 0
-24 -9 0
-22 -4 0
-23 -5 0
-24 -6 0
-22 -1 0
-23 -2 0
-24 -3 0
-25 -28 0
-26 -29 0
-27 -30 0
-25 -19 0
-26 -20 0
-27 -21 0
-25 -16 0
-26 -17 0
-27 -18 0
-25 -13 0
-26 -14 0
-27 -15 0
-25 -10 0
-26 -11 0
-27 -12 0
-25 -4 0
-26 -5 0
-27 -6 0
-25 -1 0
-26 -2 0
-27 -3 0
-28 -31 0
-29 -32 0
-30 -33 0
-28 -25 0
-29 -26 0
-30 -27 0
-28 -16 0
-29 -17 0
-30 -18 0
-28 -10 0
-29 -11 0
-30 -12 0
-28 -7 0
-29 -8 0
-30 -9 0
-28 -4 0
-29 -5 0
-30 -6 0
-28 -1 0
-29 -2 0
-30 -3 0
-31 -28 0
-32 -29 0
-33 -30 0
-31 -22 0
-32 -23 0
-33 -24 0
-31 -19 0
-32 -20 0
-33 -21 0
-31 -16 0
-32 -17 0
-33 -18 0
-31 -13 0
-32 -14 0
-33 -15 0
-31 -10 0
-32 -11 0
-33 -12 0
-31 -7 0
-32 -8 0
-33 -9 0
